p cnf 961 2466
51 -694 -695 0
-51 694 0
-51 695 0
52 -51 -696 0
-52 51 0
-52 696 0
53 -697 -4 0
-53 697 0
-53 4 0
54 -53 -6 0
-54 53 0
-54 6 0
55 -698 -699 0
-55 698 0
-55 699 0
56 -700 -7 0
-56 700 0
-56 7 0
57 -56 -701 0
-57 56 0
-57 701 0
58 -702 -55 0
-58 702 0
-58 55 0
59 -10 -701 0
-59 10 0
-59 701 0
60 -59 -703 0
-60 59 0
-60 703 0
61 -704 -58 0
-61 704 0
-61 58 0
62 -705 -706 0
-62 705 0
-62 706 0
63 -62 -3 0
-63 62 0
-63 3 0
64 -707 -61 0
-64 707 0
-64 61 0
65 -14 -706 0
-65 14 0
-65 706 0
66 -65 -15 0
-66 65 0
-66 15 0
67 -708 -64 0
-67 708 0
-67 64 0
68 -709 -8 0
-68 709 0
-68 8 0
69 -68 -17 0
-69 68 0
-69 17 0
70 -710 -67 0
-70 710 0
-70 67 0
71 -709 -6 0
-71 709 0
-71 6 0
72 -71 -711 0
-72 71 0
-72 711 0
73 -712 -70 0
-73 712 0
-73 70 0
74 -20 -19 0
-74 20 0
-74 19 0
75 -74 -3 0
-75 74 0
-75 3 0
76 -713 -73 0
-76 713 0
-76 73 0
77 -22 -21 0
-77 22 0
-77 21 0
78 -77 -23 0
-78 77 0
-78 23 0
79 -714 -76 0
-79 714 0
-79 76 0
80 -715 -19 0
-80 715 0
-80 19 0
81 -80 -716 0
-81 80 0
-81 716 0
82 -717 -79 0
-82 717 0
-82 79 0
83 -718 -26 0
-83 718 0
-83 26 0
84 -83 -719 0
-84 83 0
-84 719 0
85 -720 -82 0
-85 720 0
-85 82 0
86 -26 -721 0
-86 26 0
-86 721 0
87 -86 -722 0
-87 86 0
-87 722 0
88 -723 -85 0
-88 723 0
-88 85 0
89 -28 -12 0
-89 28 0
-89 12 0
90 -89 -724 0
-90 89 0
-90 724 0
91 -725 -88 0
-91 725 0
-91 88 0
92 -726 -30 0
-92 726 0
-92 30 0
93 -92 -727 0
-93 92 0
-93 727 0
94 -728 -91 0
-94 728 0
-94 91 0
95 -729 -25 0
-95 729 0
-95 25 0
96 -95 -722 0
-96 95 0
-96 722 0
97 -730 -94 0
-97 730 0
-97 94 0
98 -24 -22 0
-98 24 0
-98 22 0
99 -98 -709 0
-99 98 0
-99 709 0
100 -731 -97 0
-100 731 0
-100 97 0
101 -732 -5 0
-101 732 0
-101 5 0
102 -101 -733 0
-102 101 0
-102 733 0
103 -734 -100 0
-103 734 0
-103 100 0
104 -715 -735 0
-104 715 0
-104 735 0
105 -104 -34 0
-105 104 0
-105 34 0
106 -736 -103 0
-106 736 0
-106 103 0
107 -35 -17 0
-107 35 0
-107 17 0
108 -107 -737 0
-108 107 0
-108 737 0
109 -738 -106 0
-109 738 0
-109 106 0
110 -27 -6 0
-110 27 0
-110 6 0
111 -110 -37 0
-111 110 0
-111 37 0
112 -739 -109 0
-112 739 0
-112 109 0
113 -740 -30 0
-113 740 0
-113 30 0
114 -113 -22 0
-114 113 0
-114 22 0
115 -741 -112 0
-115 741 0
-115 112 0
116 -12 -695 0
-116 12 0
-116 695 0
117 -116 -11 0
-117 116 0
-117 11 0
118 -742 -115 0
-118 742 0
-118 115 0
119 -743 -706 0
-119 743 0
-119 706 0
120 -119 -744 0
-120 119 0
-120 744 0
121 -745 -118 0
-121 745 0
-121 118 0
122 -31 -694 0
-122 31 0
-122 694 0
123 -122 -743 0
-123 122 0
-123 743 0
124 -746 -121 0
-124 746 0
-124 121 0
125 -23 -12 0
-125 23 0
-125 12 0
126 -125 -17 0
-126 125 0
-126 17 0
127 -747 -124 0
-127 747 0
-127 124 0
128 -39 -727 0
-128 39 0
-128 727 0
129 -128 -36 0
-129 128 0
-129 36 0
130 -748 -127 0
-130 748 0
-130 127 0
131 -749 -750 0
-131 749 0
-131 750 0
132 -131 -37 0
-132 131 0
-132 37 0
133 -751 -130 0
-133 751 0
-133 130 0
134 -33 -25 0
-134 33 0
-134 25 0
135 -134 -21 0
-135 134 0
-135 21 0
136 -752 -133 0
-136 752 0
-136 133 0
137 -705 -9 0
-137 705 0
-137 9 0
138 -137 -3 0
-138 137 0
-138 3 0
139 -753 -136 0
-139 753 0
-139 136 0
140 -28 -732 0
-140 28 0
-140 732 0
141 -140 -40 0
-141 140 0
-141 40 0
142 -754 -139 0
-142 754 0
-142 139 0
143 -41 -749 0
-143 41 0
-143 749 0
144 -143 -40 0
-144 143 0
-144 40 0
145 -755 -142 0
-145 755 0
-145 142 0
146 -20 -701 0
-146 20 0
-146 701 0
147 -146 -15 0
-147 146 0
-147 15 0
148 -756 -145 0
-148 756 0
-148 145 0
149 -757 -22 0
-149 757 0
-149 22 0
150 -149 -43 0
-150 149 0
-150 43 0
151 -758 -148 0
-151 758 0
-151 148 0
152 -7 -721 0
-152 7 0
-152 721 0
153 -152 -724 0
-153 152 0
-153 724 0
154 -759 -151 0
-154 759 0
-154 151 0
155 -31 -21 0
-155 31 0
-155 21 0
156 -155 -17 0
-156 155 0
-156 17 0
157 -760 -154 0
-157 760 0
-157 154 0
158 -761 -19 0
-158 761 0
-158 19 0
159 -158 -762 0
-159 158 0
-159 762 0
160 -763 -157 0
-160 763 0
-160 157 0
161 -761 -38 0
-161 761 0
-161 38 0
162 -161 -15 0
-162 161 0
-162 15 0
163 -764 -160 0
-163 764 0
-163 160 0
164 -33 -26 0
-164 33 0
-164 26 0
165 -164 -743 0
-165 164 0
-165 743 0
166 -765 -163 0
-166 765 0
-166 163 0
167 -766 -767 0
-167 766 0
-167 767 0
168 -167 -737 0
-168 167 0
-168 737 0
169 -768 -166 0
-169 768 0
-169 166 0
170 -769 -733 0
-170 769 0
-170 733 0
171 -170 -711 0
-171 170 0
-171 711 0
172 -770 -169 0
-172 770 0
-172 169 0
173 -740 -23 0
-173 740 0
-173 23 0
174 -173 -696 0
-174 173 0
-174 696 0
175 -771 -172 0
-175 771 0
-175 172 0
176 -35 -743 0
-176 35 0
-176 743 0
177 -176 -744 0
-177 176 0
-177 744 0
178 -772 -175 0
-178 772 0
-178 175 0
179 -773 -8 0
-179 773 0
-179 8 0
180 -179 -21 0
-180 179 0
-180 21 0
181 -774 -178 0
-181 774 0
-181 178 0
182 -740 -28 0
-182 740 0
-182 28 0
183 -182 -703 0
-183 182 0
-183 703 0
184 -775 -181 0
-184 775 0
-184 181 0
185 -776 -715 0
-185 776 0
-185 715 0
186 -185 -777 0
-186 185 0
-186 777 0
187 -778 -184 0
-187 778 0
-187 184 0
188 -779 -706 0
-188 779 0
-188 706 0
189 -188 -697 0
-189 188 0
-189 697 0
190 -780 -187 0
-190 780 0
-190 187 0
191 -721 -1 0
-191 721 0
-191 1 0
192 -191 -777 0
-192 191 0
-192 777 0
193 -781 -190 0
-193 781 0
-193 190 0
194 -33 -724 0
-194 33 0
-194 724 0
195 -194 -782 0
-195 194 0
-195 782 0
196 -783 -193 0
-196 783 0
-196 193 0
197 -15 -694 0
-197 15 0
-197 694 0
198 -197 -42 0
-198 197 0
-198 42 0
199 -784 -196 0
-199 784 0
-199 196 0
200 -34 -726 0
-200 34 0
-200 726 0
201 -200 -18 0
-201 200 0
-201 18 0
202 -785 -199 0
-202 785 0
-202 199 0
203 -718 -16 0
-203 718 0
-203 16 0
204 -203 -43 0
-204 203 0
-204 43 0
205 -786 -202 0
-205 786 0
-205 202 0
206 -47 -22 0
-206 47 0
-206 22 0
207 -206 -13 0
-207 206 0
-207 13 0
208 -787 -205 0
-208 787 0
-208 205 0
209 -32 -9 0
-209 32 0
-209 9 0
210 -209 -711 0
-210 209 0
-210 711 0
211 -788 -208 0
-211 788 0
-211 208 0
212 -735 -2 0
-212 735 0
-212 2 0
213 -212 -17 0
-213 212 0
-213 17 0
214 -789 -211 0
-214 789 0
-214 211 0
215 -26 -22 0
-215 26 0
-215 22 0
216 -215 -16 0
-216 215 0
-216 16 0
217 -790 -214 0
-217 790 0
-217 214 0
218 -49 -20 0
-218 49 0
-218 20 0
219 -218 -697 0
-219 218 0
-219 697 0
220 -791 -217 0
-220 791 0
-220 217 0
221 -757 -722 0
-221 757 0
-221 722 0
222 -221 -43 0
-222 221 0
-222 43 0
223 -792 -220 0
-223 792 0
-223 220 0
224 -793 -729 0
-224 793 0
-224 729 0
225 -224 -709 0
-225 224 0
-225 709 0
226 -794 -223 0
-226 794 0
-226 223 0
227 -776 -1 0
-227 776 0
-227 1 0
228 -227 -716 0
-228 227 0
-228 716 0
229 -795 -226 0
-229 795 0
-229 226 0
230 -796 -743 0
-230 796 0
-230 743 0
231 -230 -23 0
-231 230 0
-231 23 0
232 -797 -229 0
-232 797 0
-232 229 0
233 -722 -2 0
-233 722 0
-233 2 0
234 -233 -733 0
-234 233 0
-234 733 0
235 -798 -232 0
-235 798 0
-235 232 0
236 -46 -24 0
-236 46 0
-236 24 0
237 -236 -696 0
-237 236 0
-237 696 0
238 -799 -235 0
-238 799 0
-238 235 0
239 -740 -2 0
-239 740 0
-239 2 0
240 -239 -777 0
-240 239 0
-240 777 0
241 -800 -238 0
-241 800 0
-241 238 0
242 -44 -32 0
-242 44 0
-242 32 0
243 -242 -696 0
-243 242 0
-243 696 0
244 -801 -241 0
-244 801 0
-244 241 0
245 -740 -5 0
-245 740 0
-245 5 0
246 -245 -782 0
-246 245 0
-246 782 0
247 -802 -244 0
-247 802 0
-247 244 0
248 -718 -803 0
-248 718 0
-248 803 0
249 -248 -711 0
-249 248 0
-249 711 0
250 -804 -247 0
-250 804 0
-250 247 0
251 -65 -766 0
-251 65 0
-251 766 0
252 -805 -250 0
-252 805 0
-252 250 0
253 -767 -733 0
-253 767 0
-253 733 0
254 -253 -36 0
-254 253 0
-254 36 0
255 -806 -252 0
-255 806 0
-255 252 0
256 -761 -743 0
-256 761 0
-256 743 0
257 -256 -35 0
-257 256 0
-257 35 0
258 -807 -255 0
-258 807 0
-258 255 0
259 -45 -1 0
-259 45 0
-259 1 0
260 -259 -41 0
-260 259 0
-260 41 0
261 -808 -258 0
-261 808 0
-261 258 0
262 -773 -5 0
-262 773 0
-262 5 0
263 -262 -22 0
-263 262 0
-263 22 0
264 -809 -261 0
-264 809 0
-264 261 0
265 -14 -8 0
-265 14 0
-265 8 0
266 -265 -21 0
-266 265 0
-266 21 0
267 -810 -264 0
-267 810 0
-267 264 0
268 -722 -14 0
-268 722 0
-268 14 0
269 -268 -46 0
-269 268 0
-269 46 0
270 -811 -267 0
-270 811 0
-270 267 0
271 -33 -695 0
-271 33 0
-271 695 0
272 -271 -17 0
-272 271 0
-272 17 0
273 -812 -270 0
-273 812 0
-273 270 0
274 -724 -2 0
-274 724 0
-274 2 0
275 -274 -743 0
-275 274 0
-275 743 0
276 -813 -273 0
-276 813 0
-276 273 0
277 -42 -719 0
-277 42 0
-277 719 0
278 -277 -767 0
-278 277 0
-278 767 0
279 -814 -276 0
-279 814 0
-279 276 0
280 -815 -23 0
-280 815 0
-280 23 0
281 -280 -711 0
-281 280 0
-281 711 0
282 -816 -279 0
-282 816 0
-282 279 0
283 -766 -7 0
-283 766 0
-283 7 0
284 -283 -703 0
-284 283 0
-284 703 0
285 -817 -282 0
-285 817 0
-285 282 0
286 -30 -732 0
-286 30 0
-286 732 0
287 -286 -769 0
-287 286 0
-287 769 0
288 -818 -285 0
-288 818 0
-288 285 0
289 -33 -749 0
-289 33 0
-289 749 0
290 -289 -35 0
-290 289 0
-290 35 0
291 -819 -288 0
-291 819 0
-291 288 0
292 -47 -722 0
-292 47 0
-292 722 0
293 -292 -793 0
-293 292 0
-293 793 0
294 -820 -291 0
-294 820 0
-294 291 0
295 -773 -769 0
-295 773 0
-295 769 0
296 -295 -709 0
-296 295 0
-296 709 0
297 -821 -294 0
-297 821 0
-297 294 0
298 -48 -6 0
-298 48 0
-298 6 0
299 -298 -696 0
-299 298 0
-299 696 0
300 -822 -297 0
-300 822 0
-300 297 0
301 -823 -701 0
-301 823 0
-301 701 0
302 -301 -709 0
-302 301 0
-302 709 0
303 -824 -300 0
-303 824 0
-303 300 0
304 -766 -718 0
-304 766 0
-304 718 0
305 -304 -48 0
-305 304 0
-305 48 0
306 -825 -303 0
-306 825 0
-306 303 0
307 -735 -700 0
-307 735 0
-307 700 0
308 -307 -737 0
-308 307 0
-308 737 0
309 -826 -306 0
-309 826 0
-309 306 0
310 -827 -12 0
-310 827 0
-310 12 0
311 -310 -709 0
-311 310 0
-311 709 0
312 -828 -309 0
-312 828 0
-312 309 0
313 -49 -40 0
-313 49 0
-313 40 0
314 -313 -42 0
-314 313 0
-314 42 0
315 -829 -312 0
-315 829 0
-315 312 0
316 -729 -700 0
-316 729 0
-316 700 0
317 -316 -766 0
-317 316 0
-317 766 0
318 -830 -315 0
-318 830 0
-318 315 0
319 -724 -26 0
-319 724 0
-319 26 0
320 -319 -16 0
-320 319 0
-320 16 0
321 -831 -318 0
-321 831 0
-321 318 0
322 -95 -34 0
-322 95 0
-322 34 0
323 -832 -321 0
-323 832 0
-323 321 0
324 -724 -715 0
-324 724 0
-324 715 0
325 -324 -21 0
-325 324 0
-325 21 0
326 -833 -323 0
-326 833 0
-326 323 0
327 -25 -9 0
-327 25 0
-327 9 0
328 -327 -3 0
-328 327 0
-328 3 0
329 -834 -326 0
-329 834 0
-329 326 0
330 -773 -17 0
-330 773 0
-330 17 0
331 -330 -703 0
-331 330 0
-331 703 0
332 -835 -329 0
-332 835 0
-332 329 0
333 -761 -24 0
-333 761 0
-333 24 0
334 -333 -735 0
-334 333 0
-334 735 0
335 -836 -332 0
-335 836 0
-335 332 0
336 -32 -4 0
-336 32 0
-336 4 0
337 -336 -3 0
-337 336 0
-337 3 0
338 -837 -335 0
-338 837 0
-338 335 0
339 -31 -732 0
-339 31 0
-339 732 0
340 -339 -782 0
-340 339 0
-340 782 0
341 -838 -338 0
-341 838 0
-341 338 0
342 -839 -715 0
-342 839 0
-342 715 0
343 -342 -697 0
-343 342 0
-343 697 0
344 -840 -341 0
-344 840 0
-344 341 0
345 -827 -695 0
-345 827 0
-345 695 0
346 -345 -5 0
-346 345 0
-346 5 0
347 -841 -344 0
-347 841 0
-347 344 0
348 -50 -815 0
-348 50 0
-348 815 0
349 -348 -17 0
-349 348 0
-349 17 0
350 -842 -347 0
-350 842 0
-350 347 0
351 -715 -7 0
-351 715 0
-351 7 0
352 -351 -716 0
-352 351 0
-352 716 0
353 -843 -350 0
-353 843 0
-353 350 0
354 -38 -701 0
-354 38 0
-354 701 0
355 -354 -35 0
-355 354 0
-355 35 0
356 -844 -353 0
-356 844 0
-356 353 0
357 -749 -700 0
-357 749 0
-357 700 0
358 -357 -21 0
-358 357 0
-358 21 0
359 -845 -356 0
-359 845 0
-359 356 0
360 -815 -38 0
-360 815 0
-360 38 0
361 -360 -744 0
-361 360 0
-361 744 0
362 -846 -359 0
-362 846 0
-362 359 0
363 -33 -7 0
-363 33 0
-363 7 0
364 -363 -705 0
-364 363 0
-364 705 0
365 -847 -362 0
-365 847 0
-365 362 0
366 -716 -1 0
-366 716 0
-366 1 0
367 -366 -45 0
-367 366 0
-367 45 0
368 -848 -365 0
-368 848 0
-368 365 0
369 -743 -782 0
-369 743 0
-369 782 0
370 -369 -13 0
-370 369 0
-370 13 0
371 -849 -368 0
-371 849 0
-371 368 0
372 -14 -749 0
-372 14 0
-372 749 0
373 -372 -724 0
-373 372 0
-373 724 0
374 -850 -371 0
-374 850 0
-374 371 0
375 -39 -4 0
-375 39 0
-375 4 0
376 -375 -782 0
-376 375 0
-376 782 0
377 -851 -374 0
-377 851 0
-377 374 0
378 -839 -779 0
-378 839 0
-378 779 0
379 -378 -769 0
-379 378 0
-379 769 0
380 -852 -377 0
-380 852 0
-380 377 0
381 -116 -38 0
-381 116 0
-381 38 0
382 -853 -380 0
-382 853 0
-382 380 0
383 -827 -719 0
-383 827 0
-383 719 0
384 -383 -43 0
-384 383 0
-384 43 0
385 -854 -382 0
-385 854 0
-385 382 0
386 -757 -19 0
-386 757 0
-386 19 0
387 -386 -733 0
-387 386 0
-387 733 0
388 -855 -385 0
-388 855 0
-388 385 0
389 -47 -38 0
-389 47 0
-389 38 0
390 -389 -733 0
-390 389 0
-390 733 0
391 -856 -388 0
-391 856 0
-391 388 0
392 -47 -711 0
-392 47 0
-392 711 0
393 -392 -696 0
-393 392 0
-393 696 0
394 -857 -391 0
-394 857 0
-394 391 0
395 -28 -25 0
-395 28 0
-395 25 0
396 -395 -724 0
-396 395 0
-396 724 0
397 -858 -394 0
-397 858 0
-397 394 0
398 -729 -718 0
-398 729 0
-398 718 0
399 -398 -29 0
-399 398 0
-399 29 0
400 -859 -397 0
-400 859 0
-400 397 0
401 -49 -715 0
-401 49 0
-401 715 0
402 -401 -31 0
-402 401 0
-402 31 0
403 -860 -400 0
-403 860 0
-403 400 0
404 -776 -716 0
-404 776 0
-404 716 0
405 -404 -3 0
-405 404 0
-405 3 0
406 -861 -403 0
-406 861 0
-406 403 0
407 -248 -36 0
-407 248 0
-407 36 0
408 -862 -406 0
-408 862 0
-408 406 0
409 -28 -722 0
-409 28 0
-409 722 0
410 -409 -709 0
-410 409 0
-410 709 0
411 -863 -408 0
-411 863 0
-411 408 0
412 -41 -2 0
-412 41 0
-412 2 0
413 -412 -782 0
-413 412 0
-413 782 0
414 -864 -411 0
-414 864 0
-414 411 0
415 -46 -724 0
-415 46 0
-415 724 0
416 -415 -782 0
-416 415 0
-416 782 0
417 -865 -414 0
-417 865 0
-417 414 0
418 -779 -22 0
-418 779 0
-418 22 0
419 -418 -11 0
-419 418 0
-419 11 0
420 -866 -417 0
-420 866 0
-420 417 0
421 -701 -8 0
-421 701 0
-421 8 0
422 -421 -737 0
-422 421 0
-422 737 0
423 -867 -420 0
-423 867 0
-423 420 0
424 -32 -14 0
-424 32 0
-424 14 0
425 -424 -27 0
-425 424 0
-425 27 0
426 -868 -423 0
-426 868 0
-426 423 0
427 -39 -718 0
-427 39 0
-427 718 0
428 -427 -697 0
-428 427 0
-428 697 0
429 -869 -426 0
-429 869 0
-429 426 0
430 -29 -7 0
-430 29 0
-430 7 0
431 -430 -696 0
-431 430 0
-431 696 0
432 -870 -429 0
-432 870 0
-432 429 0
433 -724 -10 0
-433 724 0
-433 10 0
434 -433 -35 0
-434 433 0
-434 35 0
435 -871 -432 0
-435 871 0
-435 432 0
436 -30 -776 0
-436 30 0
-436 776 0
437 -436 -727 0
-437 436 0
-437 727 0
438 -872 -435 0
-438 872 0
-438 435 0
439 -31 -718 0
-439 31 0
-439 718 0
440 -439 -36 0
-440 439 0
-440 36 0
441 -873 -438 0
-441 873 0
-441 438 0
442 -48 -718 0
-442 48 0
-442 718 0
443 -442 -37 0
-443 442 0
-443 37 0
444 -874 -441 0
-444 874 0
-444 441 0
445 -793 -33 0
-445 793 0
-445 33 0
446 -445 -18 0
-446 445 0
-446 18 0
447 -875 -444 0
-447 875 0
-447 444 0
448 -47 -28 0
-448 47 0
-448 28 0
449 -448 -705 0
-449 448 0
-449 705 0
450 -876 -447 0
-450 876 0
-450 447 0
451 -796 -28 0
-451 796 0
-451 28 0
452 -451 -877 0
-452 451 0
-452 877 0
453 -878 -450 0
-453 878 0
-453 450 0
454 -762 -19 0
-454 762 0
-454 19 0
455 -454 -793 0
-455 454 0
-455 793 0
456 -879 -453 0
-456 879 0
-456 453 0
457 -762 -34 0
-457 762 0
-457 34 0
458 -457 -733 0
-458 457 0
-458 733 0
459 -880 -456 0
-459 880 0
-459 456 0
460 -769 -23 0
-460 769 0
-460 23 0
461 -460 -744 0
-461 460 0
-461 744 0
462 -881 -459 0
-462 881 0
-462 459 0
463 -433 -13 0
-463 433 0
-463 13 0
464 -882 -462 0
-464 882 0
-464 462 0
465 -28 -20 0
-465 28 0
-465 20 0
466 -465 -743 0
-466 465 0
-466 743 0
467 -883 -464 0
-467 883 0
-467 464 0
468 -42 -17 0
-468 42 0
-468 17 0
469 -468 -767 0
-469 468 0
-469 767 0
470 -884 -467 0
-470 884 0
-470 467 0
471 -436 -50 0
-471 436 0
-471 50 0
472 -885 -470 0
-472 885 0
-472 470 0
473 -313 -877 0
-473 313 0
-473 877 0
474 -886 -472 0
-474 886 0
-474 472 0
475 -815 -1 0
-475 815 0
-475 1 0
476 -475 -877 0
-476 475 0
-476 877 0
477 -887 -474 0
-477 887 0
-477 474 0
478 -28 -735 0
-478 28 0
-478 735 0
479 -478 -757 0
-479 478 0
-479 757 0
480 -888 -477 0
-480 888 0
-480 477 0
481 -80 -726 0
-481 80 0
-481 726 0
482 -889 -480 0
-482 889 0
-482 480 0
483 -38 -722 0
-483 38 0
-483 722 0
484 -483 -22 0
-484 483 0
-484 22 0
485 -890 -482 0
-485 890 0
-485 482 0
486 -716 -17 0
-486 716 0
-486 17 0
487 -486 -43 0
-487 486 0
-487 43 0
488 -891 -485 0
-488 891 0
-488 485 0
489 -726 -9 0
-489 726 0
-489 9 0
490 -489 -37 0
-490 489 0
-490 37 0
491 -892 -488 0
-491 892 0
-491 488 0
492 -719 -4 0
-492 719 0
-492 4 0
493 -492 -711 0
-493 492 0
-493 711 0
494 -893 -491 0
-494 893 0
-494 491 0
495 -15 -721 0
-495 15 0
-495 721 0
496 -495 -18 0
-496 495 0
-496 18 0
497 -894 -494 0
-497 894 0
-497 494 0
498 -44 -5 0
-498 44 0
-498 5 0
499 -498 -769 0
-499 498 0
-499 769 0
500 -895 -497 0
-500 895 0
-500 497 0
501 -415 -40 0
-501 415 0
-501 40 0
502 -896 -500 0
-502 896 0
-502 500 0
503 -39 -776 0
-503 39 0
-503 776 0
504 -503 -3 0
-504 503 0
-504 3 0
505 -897 -502 0
-505 897 0
-505 502 0
506 -777 -44 0
-506 777 0
-506 44 0
507 -506 -767 0
-507 506 0
-507 767 0
508 -898 -505 0
-508 898 0
-508 505 0
509 -49 -47 0
-509 49 0
-509 47 0
510 -509 -6 0
-510 509 0
-510 6 0
511 -899 -508 0
-511 899 0
-511 508 0
512 -34 -709 0
-512 34 0
-512 709 0
513 -512 -36 0
-513 512 0
-513 36 0
514 -900 -511 0
-514 900 0
-514 511 0
515 -33 -727 0
-515 33 0
-515 727 0
516 -515 -769 0
-516 515 0
-516 769 0
517 -901 -514 0
-517 901 0
-517 514 0
518 -743 -715 0
-518 743 0
-518 715 0
519 -518 -711 0
-519 518 0
-519 711 0
520 -902 -517 0
-520 902 0
-520 517 0
521 -700 -695 0
-521 700 0
-521 695 0
522 -521 -776 0
-522 521 0
-522 776 0
523 -903 -520 0
-523 903 0
-523 520 0
524 -43 -722 0
-524 43 0
-524 722 0
525 -524 -36 0
-525 524 0
-525 36 0
526 -904 -523 0
-526 904 0
-526 523 0
527 -20 -14 0
-527 20 0
-527 14 0
528 -527 -41 0
-528 527 0
-528 41 0
529 -905 -526 0
-529 905 0
-529 526 0
530 -796 -827 0
-530 796 0
-530 827 0
531 -530 -709 0
-531 530 0
-531 709 0
532 -906 -529 0
-532 906 0
-532 529 0
533 -762 -695 0
-533 762 0
-533 695 0
534 -533 -705 0
-534 533 0
-534 705 0
535 -907 -532 0
-535 907 0
-535 532 0
536 -27 -21 0
-536 27 0
-536 21 0
537 -536 -42 0
-537 536 0
-537 42 0
538 -908 -535 0
-538 908 0
-538 535 0
539 -39 -709 0
-539 39 0
-539 709 0
540 -539 -3 0
-540 539 0
-540 3 0
541 -909 -538 0
-541 909 0
-541 538 0
542 -48 -47 0
-542 48 0
-542 47 0
543 -542 -877 0
-543 542 0
-543 877 0
544 -910 -541 0
-544 910 0
-544 541 0
545 -715 -700 0
-545 715 0
-545 700 0
546 -545 -733 0
-546 545 0
-546 733 0
547 -911 -544 0
-547 911 0
-547 544 0
548 -39 -21 0
-548 39 0
-548 21 0
549 -548 -743 0
-549 548 0
-549 743 0
550 -912 -547 0
-550 912 0
-550 547 0
551 -31 -827 0
-551 31 0
-551 827 0
552 -551 -23 0
-552 551 0
-552 23 0
553 -913 -550 0
-553 913 0
-553 550 0
554 -757 -733 0
-554 757 0
-554 733 0
555 -554 -744 0
-555 554 0
-555 744 0
556 -914 -553 0
-556 914 0
-556 553 0
557 -24 -16 0
-557 24 0
-557 16 0
558 -557 -18 0
-558 557 0
-558 18 0
559 -915 -556 0
-559 915 0
-559 556 0
560 -777 -1 0
-560 777 0
-560 1 0
561 -560 -916 0
-561 560 0
-561 916 0
562 -917 -559 0
-562 917 0
-562 559 0
563 -793 -24 0
-563 793 0
-563 24 0
564 -563 -41 0
-564 563 0
-564 41 0
565 -918 -562 0
-565 918 0
-565 562 0
566 -41 -27 0
-566 41 0
-566 27 0
567 -566 -17 0
-567 566 0
-567 17 0
568 -919 -565 0
-568 919 0
-568 565 0
569 -49 -26 0
-569 49 0
-569 26 0
570 -569 -5 0
-570 569 0
-570 5 0
571 -920 -568 0
-571 920 0
-571 568 0
572 -726 -697 0
-572 726 0
-572 697 0
573 -572 -703 0
-573 572 0
-573 703 0
574 -921 -571 0
-574 921 0
-574 571 0
575 -827 -721 0
-575 827 0
-575 721 0
576 -575 -744 0
-576 575 0
-576 744 0
577 -922 -574 0
-577 922 0
-577 574 0
578 -916 -4 0
-578 916 0
-578 4 0
579 -578 -3 0
-579 578 0
-579 3 0
580 -923 -577 0
-580 923 0
-580 577 0
581 -769 -722 0
-581 769 0
-581 722 0
582 -581 -719 0
-582 581 0
-582 719 0
583 -924 -580 0
-583 924 0
-583 580 0
584 -773 -740 0
-584 773 0
-584 740 0
585 -584 -15 0
-585 584 0
-585 15 0
586 -925 -583 0
-586 925 0
-586 583 0
587 -29 -23 0
-587 29 0
-587 23 0
588 -587 -696 0
-588 587 0
-588 696 0
589 -926 -586 0
-589 926 0
-589 586 0
590 -706 -694 0
-590 706 0
-590 694 0
591 -590 -773 0
-591 590 0
-591 773 0
592 -927 -589 0
-592 927 0
-592 589 0
593 -743 -20 0
-593 743 0
-593 20 0
594 -593 -22 0
-594 593 0
-594 22 0
595 -928 -592 0
-595 928 0
-595 592 0
596 -761 -827 0
-596 761 0
-596 827 0
597 -596 -769 0
-597 596 0
-597 769 0
598 -929 -595 0
-598 929 0
-598 595 0
599 -718 -719 0
-599 718 0
-599 719 0
600 -599 -696 0
-600 599 0
-600 696 0
601 -930 -598 0
-601 930 0
-601 598 0
602 -779 -762 0
-602 779 0
-602 762 0
603 -602 -709 0
-603 602 0
-603 709 0
604 -931 -601 0
-604 931 0
-604 601 0
605 -32 -2 0
-605 32 0
-605 2 0
606 -605 -877 0
-606 605 0
-606 877 0
607 -932 -604 0
-607 932 0
-607 604 0
608 -700 -4 0
-608 700 0
-608 4 0
609 -608 -719 0
-609 608 0
-609 719 0
610 -933 -607 0
-610 933 0
-610 607 0
611 -45 -25 0
-611 45 0
-611 25 0
612 -611 -737 0
-612 611 0
-612 737 0
613 -934 -610 0
-613 934 0
-613 610 0
614 -389 -43 0
-614 389 0
-614 43 0
615 -935 -613 0
-615 935 0
-615 613 0
616 -779 -27 0
-616 779 0
-616 27 0
617 -616 -11 0
-617 616 0
-617 11 0
618 -936 -615 0
-618 936 0
-618 615 0
619 -28 -695 0
-619 28 0
-619 695 0
620 -619 -743 0
-620 619 0
-620 743 0
621 -937 -618 0
-621 937 0
-621 618 0
622 -34 -33 0
-622 34 0
-622 33 0
623 -622 -11 0
-623 622 0
-623 11 0
624 -938 -621 0
-624 938 0
-624 621 0
625 -22 -709 0
-625 22 0
-625 709 0
626 -625 -13 0
-626 625 0
-626 13 0
627 -939 -624 0
-627 939 0
-627 624 0
628 -37 -694 0
-628 37 0
-628 694 0
629 -628 -3 0
-629 628 0
-629 3 0
630 -940 -627 0
-630 940 0
-630 627 0
631 -823 -17 0
-631 823 0
-631 17 0
632 -631 -36 0
-632 631 0
-632 36 0
633 -941 -630 0
-633 941 0
-633 630 0
634 -49 -21 0
-634 49 0
-634 21 0
635 -634 -6 0
-635 634 0
-635 6 0
636 -942 -633 0
-636 942 0
-636 633 0
637 -815 -701 0
-637 815 0
-637 701 0
638 -637 -16 0
-638 637 0
-638 16 0
639 -943 -636 0
-639 943 0
-639 636 0
640 -49 -29 0
-640 49 0
-640 29 0
641 -640 -18 0
-641 640 0
-641 18 0
642 -944 -639 0
-642 944 0
-642 639 0
643 -773 -732 0
-643 773 0
-643 732 0
644 -643 -17 0
-644 643 0
-644 17 0
645 -945 -642 0
-645 945 0
-645 642 0
646 -761 -27 0
-646 761 0
-646 27 0
647 -646 -11 0
-647 646 0
-647 11 0
648 -946 -645 0
-648 946 0
-648 645 0
649 -735 -6 0
-649 735 0
-649 6 0
650 -649 -43 0
-650 649 0
-650 43 0
651 -947 -648 0
-651 947 0
-651 648 0
652 -724 -694 0
-652 724 0
-652 694 0
653 -652 -11 0
-653 652 0
-653 11 0
654 -948 -651 0
-654 948 0
-654 651 0
655 -766 -722 0
-655 766 0
-655 722 0
656 -655 -11 0
-656 655 0
-656 11 0
657 -949 -654 0
-657 949 0
-657 654 0
658 -38 -782 0
-658 38 0
-658 782 0
659 -658 -18 0
-659 658 0
-659 18 0
660 -950 -657 0
-660 950 0
-660 657 0
661 -48 -14 0
-661 48 0
-661 14 0
662 -661 -42 0
-662 661 0
-662 42 0
663 -951 -660 0
-663 951 0
-663 660 0
664 -779 -735 0
-664 779 0
-664 735 0
665 -664 -11 0
-665 664 0
-665 11 0
666 -952 -663 0
-666 952 0
-666 663 0
667 -28 -14 0
-667 28 0
-667 14 0
668 -667 -38 0
-668 667 0
-668 38 0
669 -953 -666 0
-669 953 0
-669 666 0
670 -50 -719 0
-670 50 0
-670 719 0
671 -670 -744 0
-671 670 0
-671 744 0
672 -954 -669 0
-672 954 0
-672 669 0
673 -762 -715 0
-673 762 0
-673 715 0
674 -673 -29 0
-674 673 0
-674 29 0
675 -955 -672 0
-675 955 0
-675 672 0
676 -33 -718 0
-676 33 0
-676 718 0
677 -676 -743 0
-677 676 0
-677 743 0
678 -956 -675 0
-678 956 0
-678 675 0
679 -49 -44 0
-679 49 0
-679 44 0
680 -679 -45 0
-680 679 0
-680 45 0
681 -957 -678 0
-681 957 0
-681 678 0
682 -722 -10 0
-682 722 0
-682 10 0
683 -682 -766 0
-683 682 0
-683 766 0
684 -958 -681 0
-684 958 0
-684 681 0
685 -740 -24 0
-685 740 0
-685 24 0
686 -685 -877 0
-686 685 0
-686 877 0
687 -959 -684 0
-687 959 0
-687 684 0
688 -34 -14 0
-688 34 0
-688 14 0
689 -688 -17 0
-689 688 0
-689 17 0
690 -960 -687 0
-690 960 0
-690 687 0
691 -803 -706 0
-691 803 0
-691 706 0
692 -691 -719 0
-692 691 0
-692 719 0
693 -961 -690 0
-693 961 0
-693 690 0
-694 -2 0
694 2 0
-695 -1 0
695 1 0
-696 -3 0
696 3 0
-697 -5 0
697 5 0
-698 -54 0
698 54 0
-699 -52 0
699 52 0
-700 -8 0
700 8 0
-701 -9 0
701 9 0
-702 -57 0
702 57 0
-703 -11 0
703 11 0
-704 -60 0
704 60 0
-705 -13 0
705 13 0
-706 -12 0
706 12 0
-707 -63 0
707 63 0
-708 -66 0
708 66 0
-709 -16 0
709 16 0
-710 -69 0
710 69 0
-711 -18 0
711 18 0
-712 -72 0
712 72 0
-713 -75 0
713 75 0
-714 -78 0
714 78 0
-715 -24 0
715 24 0
-716 -25 0
716 25 0
-717 -81 0
717 81 0
-718 -27 0
718 27 0
-719 -22 0
719 22 0
-720 -84 0
720 84 0
-721 -4 0
721 4 0
-722 -20 0
722 20 0
-723 -87 0
723 87 0
-724 -29 0
724 29 0
-725 -90 0
725 90 0
-726 -31 0
726 31 0
-727 -32 0
727 32 0
-728 -93 0
728 93 0
-729 -33 0
729 33 0
-730 -96 0
730 96 0
-731 -99 0
731 99 0
-732 -21 0
732 21 0
-733 -6 0
733 6 0
-734 -102 0
734 102 0
-735 -14 0
735 14 0
-736 -105 0
736 105 0
-737 -36 0
737 36 0
-738 -108 0
738 108 0
-739 -111 0
739 111 0
-740 -38 0
740 38 0
-741 -114 0
741 114 0
-742 -117 0
742 117 0
-743 -34 0
743 34 0
-744 -37 0
744 37 0
-745 -120 0
745 120 0
-746 -123 0
746 123 0
-747 -126 0
747 126 0
-748 -129 0
748 129 0
-749 -10 0
749 10 0
-750 -7 0
750 7 0
-751 -132 0
751 132 0
-752 -135 0
752 135 0
-753 -138 0
753 138 0
-754 -141 0
754 141 0
-755 -144 0
755 144 0
-756 -147 0
756 147 0
-757 -42 0
757 42 0
-758 -150 0
758 150 0
-759 -153 0
759 153 0
-760 -156 0
760 156 0
-761 -44 0
761 44 0
-762 -39 0
762 39 0
-763 -159 0
763 159 0
-764 -162 0
764 162 0
-765 -165 0
765 165 0
-766 -45 0
766 45 0
-767 -43 0
767 43 0
-768 -168 0
768 168 0
-769 -46 0
769 46 0
-770 -171 0
770 171 0
-771 -174 0
771 174 0
-772 -177 0
772 177 0
-773 -47 0
773 47 0
-774 -180 0
774 180 0
-775 -183 0
775 183 0
-776 -26 0
776 26 0
-777 -48 0
777 48 0
-778 -186 0
778 186 0
-779 -49 0
779 49 0
-780 -189 0
780 189 0
-781 -192 0
781 192 0
-782 -23 0
782 23 0
-783 -195 0
783 195 0
-784 -198 0
784 198 0
-785 -201 0
785 201 0
-786 -204 0
786 204 0
-787 -207 0
787 207 0
-788 -210 0
788 210 0
-789 -213 0
789 213 0
-790 -216 0
790 216 0
-791 -219 0
791 219 0
-792 -222 0
792 222 0
-793 -35 0
793 35 0
-794 -225 0
794 225 0
-795 -228 0
795 228 0
-796 -40 0
796 40 0
-797 -231 0
797 231 0
-798 -234 0
798 234 0
-799 -237 0
799 237 0
-800 -240 0
800 240 0
-801 -243 0
801 243 0
-802 -246 0
802 246 0
-803 -19 0
803 19 0
-804 -249 0
804 249 0
-805 -251 0
805 251 0
-806 -254 0
806 254 0
-807 -257 0
807 257 0
-808 -260 0
808 260 0
-809 -263 0
809 263 0
-810 -266 0
810 266 0
-811 -269 0
811 269 0
-812 -272 0
812 272 0
-813 -275 0
813 275 0
-814 -278 0
814 278 0
-815 -41 0
815 41 0
-816 -281 0
816 281 0
-817 -284 0
817 284 0
-818 -287 0
818 287 0
-819 -290 0
819 290 0
-820 -293 0
820 293 0
-821 -296 0
821 296 0
-822 -299 0
822 299 0
-823 -30 0
823 30 0
-824 -302 0
824 302 0
-825 -305 0
825 305 0
-826 -308 0
826 308 0
-827 -28 0
827 28 0
-828 -311 0
828 311 0
-829 -314 0
829 314 0
-830 -317 0
830 317 0
-831 -320 0
831 320 0
-832 -322 0
832 322 0
-833 -325 0
833 325 0
-834 -328 0
834 328 0
-835 -331 0
835 331 0
-836 -334 0
836 334 0
-837 -337 0
837 337 0
-838 -340 0
838 340 0
-839 -50 0
839 50 0
-840 -343 0
840 343 0
-841 -346 0
841 346 0
-842 -349 0
842 349 0
-843 -352 0
843 352 0
-844 -355 0
844 355 0
-845 -358 0
845 358 0
-846 -361 0
846 361 0
-847 -364 0
847 364 0
-848 -367 0
848 367 0
-849 -370 0
849 370 0
-850 -373 0
850 373 0
-851 -376 0
851 376 0
-852 -379 0
852 379 0
-853 -381 0
853 381 0
-854 -384 0
854 384 0
-855 -387 0
855 387 0
-856 -390 0
856 390 0
-857 -393 0
857 393 0
-858 -396 0
858 396 0
-859 -399 0
859 399 0
-860 -402 0
860 402 0
-861 -405 0
861 405 0
-862 -407 0
862 407 0
-863 -410 0
863 410 0
-864 -413 0
864 413 0
-865 -416 0
865 416 0
-866 -419 0
866 419 0
-867 -422 0
867 422 0
-868 -425 0
868 425 0
-869 -428 0
869 428 0
-870 -431 0
870 431 0
-871 -434 0
871 434 0
-872 -437 0
872 437 0
-873 -440 0
873 440 0
-874 -443 0
874 443 0
-875 -446 0
875 446 0
-876 -449 0
876 449 0
-877 -15 0
877 15 0
-878 -452 0
878 452 0
-879 -455 0
879 455 0
-880 -458 0
880 458 0
-881 -461 0
881 461 0
-882 -463 0
882 463 0
-883 -466 0
883 466 0
-884 -469 0
884 469 0
-885 -471 0
885 471 0
-886 -473 0
886 473 0
-887 -476 0
887 476 0
-888 -479 0
888 479 0
-889 -481 0
889 481 0
-890 -484 0
890 484 0
-891 -487 0
891 487 0
-892 -490 0
892 490 0
-893 -493 0
893 493 0
-894 -496 0
894 496 0
-895 -499 0
895 499 0
-896 -501 0
896 501 0
-897 -504 0
897 504 0
-898 -507 0
898 507 0
-899 -510 0
899 510 0
-900 -513 0
900 513 0
-901 -516 0
901 516 0
-902 -519 0
902 519 0
-903 -522 0
903 522 0
-904 -525 0
904 525 0
-905 -528 0
905 528 0
-906 -531 0
906 531 0
-907 -534 0
907 534 0
-908 -537 0
908 537 0
-909 -540 0
909 540 0
-910 -543 0
910 543 0
-911 -546 0
911 546 0
-912 -549 0
912 549 0
-913 -552 0
913 552 0
-914 -555 0
914 555 0
-915 -558 0
915 558 0
-916 -17 0
916 17 0
-917 -561 0
917 561 0
-918 -564 0
918 564 0
-919 -567 0
919 567 0
-920 -570 0
920 570 0
-921 -573 0
921 573 0
-922 -576 0
922 576 0
-923 -579 0
923 579 0
-924 -582 0
924 582 0
-925 -585 0
925 585 0
-926 -588 0
926 588 0
-927 -591 0
927 591 0
-928 -594 0
928 594 0
-929 -597 0
929 597 0
-930 -600 0
930 600 0
-931 -603 0
931 603 0
-932 -606 0
932 606 0
-933 -609 0
933 609 0
-934 -612 0
934 612 0
-935 -614 0
935 614 0
-936 -617 0
936 617 0
-937 -620 0
937 620 0
-938 -623 0
938 623 0
-939 -626 0
939 626 0
-940 -629 0
940 629 0
-941 -632 0
941 632 0
-942 -635 0
942 635 0
-943 -638 0
943 638 0
-944 -641 0
944 641 0
-945 -644 0
945 644 0
-946 -647 0
946 647 0
-947 -650 0
947 650 0
-948 -653 0
948 653 0
-949 -656 0
949 656 0
-950 -659 0
950 659 0
-951 -662 0
951 662 0
-952 -665 0
952 665 0
-953 -668 0
953 668 0
-954 -671 0
954 671 0
-955 -674 0
955 674 0
-956 -677 0
956 677 0
-957 -680 0
957 680 0
-958 -683 0
958 683 0
-959 -686 0
959 686 0
-960 -689 0
960 689 0
-961 -692 0
961 692 0
693 0
